p cnf 8 11
7 6 1 -8 5 2 0
-7 -6 -3 4 0
-3 8 -1 -6 2 -7 5 0
-5 -7 -6 1 3 0
-2 6 3 -1 8 5 -4 -7 0
-4 3 5 7 8 2 -6 1 0
-2 -4 -1 -8 6 -7 0
3 1 -7 -8 2 4 0
-1 -4 2 -5 -3 0
-2 6 8 -1 -4 7 3 0
2 -7 -1 -5 8 -4 0
